%chk=<structure_name>.chk
#P b3lyp td=nstates=<nstates>/<basis> geom=check guess=check  pop=full density=current

<structure_name> TD-DFT

0 1

